(set-info :status unsat) ; swine result
(set-logic ALL)
(declare-fun i1 () Int)
(declare-fun it1 () Int)
(declare-fun i2 () Int)
(declare-fun it2 () Int)
(declare-fun i3 () Int)
(declare-fun it3 () Int)
(declare-fun it4 () Int)
(declare-fun i4 () Int)
(declare-fun i5 () Int)
(declare-fun it5 () Int)
(declare-fun i6 () Int)
(declare-fun it6 () Int)
(declare-fun it13 () Int)
(declare-fun it14 () Int)
(declare-fun it15 () Int)
(declare-fun it16 () Int)
(declare-fun it17 () Int)
(declare-fun it18 () Int)
(declare-fun it19 () Int)
(declare-fun it20 () Int)
(declare-fun it21 () Int)
(declare-fun it22 () Int)
(declare-fun it23 () Int)
(declare-fun it24 () Int)
(declare-fun it89 () Int)
(declare-fun it90 () Int)
(declare-fun it91 () Int)
(declare-fun it92 () Int)
(declare-fun it93 () Int)
(declare-fun it94 () Int)
(declare-fun it95 () Int)
(declare-fun it96 () Int)
(declare-fun it97 () Int)
(declare-fun it98 () Int)
(declare-fun it99 () Int)
(declare-fun it100 () Int)
(declare-fun it101 () Int)
(declare-fun it102 () Int)
(declare-fun it103 () Int)
(declare-fun it104 () Int)
(declare-fun it105 () Int)
(declare-fun it106 () Int)
(declare-fun it87 () Int)
(assert (= (+ i1 (- 1)) 0))
(assert (= (+ it1 (- 2)) 0))
(assert (= (+ it2 (* i2 (- 1)) (- 1)) 0))
(assert (= (+ it3 (* i3 (- 1))) 0))
(assert (= (+ (* i4 (- 1)) it4) 0))
(assert (= (+ it5 (* i5 (- 1))) 0))
(assert (= (+ it6 (* i6 (- 1))) 0))
(assert (and (= (+ it1 (- 2)) 0) (>= (+ it3 (- 3)) 0)))
(assert (= (+ it13 (- 5)) 0))
(assert (= (+ it14 (* it2 (- 1)) (- 2)) 0))
(assert (= (+ it15 (* it3 (- 1))) 0))
(assert (= it16 0))
(assert (= (+ it17 (* it5 (- 1))) 0))
(assert (= (+ it18 (* it6 (- 1))) 0))
(assert (and (>= (+ it15 (* it16 (- 1)) (- 2)) 0) (= (+ it13 (- 5)) 0)))
(assert (= (+ it19 (- 7)) 0))
(assert (= (+ (* it14 (- 1)) it20 (- 2)) 0))
(assert (= (+ it21 (* it15 (- 1))) 0))
(assert (= (+ it22 (* it16 (- 1))) 0))
(assert (= it23 0))
(assert (= (+ it24 (* it18 (- 1))) 0))
(assert (and (= (+ it19 (- 7)) 0) (>= (+ it21 (* it22 (- 1)) (* it23 (- 2)) (- 3)) 0)))
(assert (= (+ it89 (- 8)) 0))
(assert (= (+ it90 (* it20 (- 1)) (- 1)) 0))
(assert (= (+ (* it21 (- 1)) it91) 0))
(assert (= (+ (* it22 (- 1)) it92) 0))
(assert (= (+ it93 (* it23 (- 1))) 0))
(assert (= (+ (* it24 (- 1)) it94) 0))
(assert (and (= (+ (* it93 (- 2)) it91 (* it92 (- 1)) (- 3)) 0) (= (+ it89 (- 8)) 0)))
(assert (= (+ it95 (- 13)) 0))
(assert (= (+ (* it90 (- 1)) it96 (- 2)) 0))
(assert (= (+ it97 (* it91 (- 1))) 0))
(assert (= (+ it98 (* it92 (- 1))) 0))
(assert (= (+ (* it93 (- 1)) it99) 0))
(assert (= (+ (* it93 (- 2)) it100 (- 1)) 0))
(assert (= (+ it95 (- 13)) 0))
(assert (= (+ it101 (- 7)) 0))
(assert (= (+ it102 (* it96 (- 1)) (- 2)) 0))
(assert (= (+ it103 (* it97 (- 1))) 0))
(assert (= (+ it104 (* it98 (- 1))) 0))
(assert (= (+ (* it100 (- 1)) it105) 0))
(assert (= (+ it106 (* it100 (- 1))) 0))
(assert (let ((a!1 (* (* (exp 2 (+ it87 (- 1))) (+ 0 it105)) (+ 0 2)))
      (a!3 (* (* (exp 2 (+ it87 (- 1))) (+ 0 it105)) (+ 0 (- 2)))))
(let ((a!2 (+ (+ 0 (* it103 (- 1)))
              (* (exp 2 (+ it87 (- 1))) (+ 0 2))
              (+ 0 it104)
              a!1
              (+ 0 1)))
      (a!4 (+ (+ 0 it103)
              (* (exp 2 (+ it87 (- 1))) (+ 0 (- 2)))
              (+ 0 (* it104 (- 1)))
              a!3
              (+ 0 (- 1)))))
  (and (>= (+ (* it101 (- 1)) 7) 0)
       (>= (+ it101 (- 7)) 0)
       (>= a!2 (+ 0 0))
       (>= (+ (* it103 (- 1)) it104 (* it105 2) 3) 0)
       (>= a!4 (+ 0 0))
       (>= (+ it103 (* it104 (- 1)) (* it105 (- 2)) (- 3)) 0)
       (>= (+ it87 (- 1)) 0)))))
(check-sat)
